p cnf 966 2481
51 -699 -1 0
-51 699 0
-51 1 0
52 -51 -700 0
-52 51 0
-52 700 0
53 -5 -701 0
-53 5 0
-53 701 0
54 -53 -702 0
-54 53 0
-54 702 0
55 -703 -704 0
-55 703 0
-55 704 0
56 -7 -700 0
-56 7 0
-56 700 0
57 -56 -705 0
-57 56 0
-57 705 0
58 -706 -55 0
-58 706 0
-58 55 0
59 -9 -2 0
-59 9 0
-59 2 0
60 -59 -10 0
-60 59 0
-60 10 0
61 -707 -58 0
-61 707 0
-61 58 0
62 -708 -709 0
-62 708 0
-62 709 0
63 -62 -10 0
-63 62 0
-63 10 0
64 -710 -61 0
-64 710 0
-64 61 0
65 -13 -711 0
-65 13 0
-65 711 0
66 -65 -712 0
-66 65 0
-66 712 0
67 -713 -64 0
-67 713 0
-67 64 0
68 -714 -715 0
-68 714 0
-68 715 0
69 -68 -716 0
-69 68 0
-69 716 0
70 -717 -67 0
-70 717 0
-70 67 0
71 -718 -15 0
-71 718 0
-71 15 0
72 -71 -19 0
-72 71 0
-72 19 0
73 -719 -70 0
-73 719 0
-73 70 0
74 -720 -20 0
-74 720 0
-74 20 0
75 -74 -22 0
-75 74 0
-75 22 0
76 -721 -73 0
-76 721 0
-76 73 0
77 -11 -700 0
-77 11 0
-77 700 0
78 -77 -722 0
-78 77 0
-78 722 0
79 -723 -76 0
-79 723 0
-79 76 0
80 -23 -13 0
-80 23 0
-80 13 0
81 -80 -24 0
-81 80 0
-81 24 0
82 -724 -79 0
-82 724 0
-82 79 0
83 -725 -726 0
-83 725 0
-83 726 0
84 -83 -722 0
-84 83 0
-84 722 0
85 -727 -82 0
-85 727 0
-85 82 0
86 -27 -725 0
-86 27 0
-86 725 0
87 -86 -13 0
-87 86 0
-87 13 0
88 -728 -85 0
-88 728 0
-88 85 0
89 -28 -6 0
-89 28 0
-89 6 0
90 -89 -729 0
-90 89 0
-90 729 0
91 -730 -88 0
-91 730 0
-91 88 0
92 -731 -701 0
-92 731 0
-92 701 0
93 -92 -31 0
-93 92 0
-93 31 0
94 -732 -91 0
-94 732 0
-94 91 0
95 -32 -23 0
-95 32 0
-95 23 0
96 -95 -33 0
-96 95 0
-96 33 0
97 -733 -94 0
-97 733 0
-97 94 0
98 -35 -34 0
-98 35 0
-98 34 0
99 -98 -36 0
-99 98 0
-99 36 0
100 -734 -97 0
-100 734 0
-100 97 0
101 -38 -37 0
-101 38 0
-101 37 0
102 -101 -39 0
-102 101 0
-102 39 0
103 -735 -100 0
-103 735 0
-103 100 0
104 -736 -737 0
-104 736 0
-104 737 0
105 -104 -21 0
-105 104 0
-105 21 0
106 -738 -103 0
-106 738 0
-106 103 0
107 -24 -1 0
-107 24 0
-107 1 0
108 -107 -739 0
-108 107 0
-108 739 0
109 -740 -106 0
-109 740 0
-109 106 0
110 -28 -741 0
-110 28 0
-110 741 0
111 -110 -38 0
-111 110 0
-111 38 0
112 -742 -109 0
-112 742 0
-112 109 0
113 -711 -743 0
-113 711 0
-113 743 0
114 -113 -33 0
-114 113 0
-114 33 0
115 -744 -112 0
-115 744 0
-115 112 0
116 -745 -746 0
-116 745 0
-116 746 0
117 -116 -24 0
-117 116 0
-117 24 0
118 -747 -115 0
-118 747 0
-118 115 0
119 -745 -20 0
-119 745 0
-119 20 0
120 -119 -748 0
-120 119 0
-120 748 0
121 -749 -118 0
-121 749 0
-121 118 0
122 -750 -714 0
-122 750 0
-122 714 0
123 -122 -745 0
-123 122 0
-123 745 0
124 -751 -121 0
-124 751 0
-124 121 0
125 -43 -5 0
-125 43 0
-125 5 0
126 -125 -752 0
-126 125 0
-126 752 0
127 -753 -124 0
-127 753 0
-127 124 0
128 -24 -699 0
-128 24 0
-128 699 0
129 -128 -21 0
-129 128 0
-129 21 0
130 -754 -127 0
-130 754 0
-130 127 0
131 -44 -5 0
-131 44 0
-131 5 0
132 -131 -729 0
-132 131 0
-132 729 0
133 -755 -130 0
-133 755 0
-133 130 0
134 -756 -731 0
-134 756 0
-134 731 0
135 -134 -757 0
-135 134 0
-135 757 0
136 -758 -133 0
-136 758 0
-136 133 0
137 -759 -1 0
-137 759 0
-137 1 0
138 -137 -722 0
-138 137 0
-138 722 0
139 -760 -136 0
-139 760 0
-139 136 0
140 -761 -756 0
-140 761 0
-140 756 0
141 -140 -10 0
-141 140 0
-141 10 0
142 -762 -139 0
-142 762 0
-142 139 0
143 -756 -30 0
-143 756 0
-143 30 0
144 -143 -763 0
-144 143 0
-144 763 0
145 -764 -142 0
-145 764 0
-145 142 0
146 -765 -5 0
-146 765 0
-146 5 0
147 -146 -709 0
-147 146 0
-147 709 0
148 -766 -145 0
-148 766 0
-148 145 0
149 -47 -743 0
-149 47 0
-149 743 0
150 -149 -705 0
-150 149 0
-150 705 0
151 -767 -148 0
-151 767 0
-151 148 0
152 -41 -768 0
-152 41 0
-152 768 0
153 -152 -35 0
-153 152 0
-153 35 0
154 -769 -151 0
-154 769 0
-154 151 0
155 -770 -702 0
-155 770 0
-155 702 0
156 -155 -22 0
-156 155 0
-156 22 0
157 -771 -154 0
-157 771 0
-157 154 0
158 -772 -37 0
-158 772 0
-158 37 0
159 -158 -41 0
-159 158 0
-159 41 0
160 -773 -157 0
-160 773 0
-160 157 0
161 -770 -774 0
-161 770 0
-161 774 0
162 -161 -29 0
-162 161 0
-162 29 0
163 -775 -160 0
-163 775 0
-163 160 0
164 -746 -718 0
-164 746 0
-164 718 0
165 -164 -6 0
-165 164 0
-165 6 0
166 -776 -163 0
-166 776 0
-166 163 0
167 -40 -711 0
-167 40 0
-167 711 0
168 -167 -777 0
-168 167 0
-168 777 0
169 -778 -166 0
-169 778 0
-169 166 0
170 -46 -752 0
-170 46 0
-170 752 0
171 -170 -722 0
-171 170 0
-171 722 0
172 -779 -169 0
-172 779 0
-172 169 0
173 -23 -702 0
-173 23 0
-173 702 0
174 -173 -780 0
-174 173 0
-174 780 0
175 -781 -172 0
-175 781 0
-175 172 0
176 -777 -725 0
-176 777 0
-176 725 0
177 -176 -22 0
-177 176 0
-177 22 0
178 -782 -175 0
-178 782 0
-178 175 0
179 -49 -34 0
-179 49 0
-179 34 0
180 -179 -29 0
-180 179 0
-180 29 0
181 -783 -178 0
-181 783 0
-181 178 0
182 -768 -718 0
-182 768 0
-182 718 0
183 -182 -1 0
-183 182 0
-183 1 0
184 -784 -181 0
-184 784 0
-184 181 0
185 -774 -26 0
-185 774 0
-185 26 0
186 -185 -722 0
-186 185 0
-186 722 0
187 -785 -184 0
-187 785 0
-187 184 0
188 -18 -12 0
-188 18 0
-188 12 0
189 -188 -700 0
-189 188 0
-189 700 0
190 -786 -187 0
-190 786 0
-190 187 0
191 -765 -20 0
-191 765 0
-191 20 0
192 -191 -13 0
-192 191 0
-192 13 0
193 -787 -190 0
-193 787 0
-193 190 0
194 -788 -789 0
-194 788 0
-194 789 0
195 -194 -770 0
-195 194 0
-195 770 0
196 -790 -193 0
-196 790 0
-196 193 0
197 -46 -5 0
-197 46 0
-197 5 0
198 -197 -708 0
-198 197 0
-198 708 0
199 -791 -196 0
-199 791 0
-199 196 0
200 -42 -28 0
-200 42 0
-200 28 0
201 -200 -729 0
-201 200 0
-201 729 0
202 -792 -199 0
-202 792 0
-202 199 0
203 -49 -20 0
-203 49 0
-203 20 0
204 -203 -29 0
-204 203 0
-204 29 0
205 -793 -202 0
-205 793 0
-205 202 0
206 -44 -715 0
-206 44 0
-206 715 0
207 -206 -794 0
-207 206 0
-207 794 0
208 -795 -205 0
-208 795 0
-208 205 0
209 -44 -41 0
-209 44 0
-209 41 0
210 -209 -3 0
-210 209 0
-210 3 0
211 -796 -208 0
-211 796 0
-211 208 0
212 -768 -12 0
-212 768 0
-212 12 0
213 -212 -729 0
-213 212 0
-213 729 0
214 -797 -211 0
-214 797 0
-214 211 0
215 -788 -714 0
-215 788 0
-215 714 0
216 -215 -798 0
-216 215 0
-216 798 0
217 -799 -214 0
-217 799 0
-217 214 0
218 -43 -30 0
-218 43 0
-218 30 0
219 -218 -8 0
-219 218 0
-219 8 0
220 -800 -217 0
-220 800 0
-220 217 0
221 -715 -4 0
-221 715 0
-221 4 0
222 -221 -43 0
-222 221 0
-222 43 0
223 -801 -220 0
-223 801 0
-223 220 0
224 -18 -789 0
-224 18 0
-224 789 0
225 -224 -794 0
-225 224 0
-225 794 0
226 -802 -223 0
-226 802 0
-226 223 0
227 -803 -23 0
-227 803 0
-227 23 0
228 -227 -804 0
-228 227 0
-228 804 0
229 -805 -226 0
-229 805 0
-229 226 0
230 -48 -19 0
-230 48 0
-230 19 0
231 -230 -8 0
-231 230 0
-231 8 0
232 -806 -229 0
-232 806 0
-232 229 0
233 -757 -718 0
-233 757 0
-233 718 0
234 -233 -11 0
-234 233 0
-234 11 0
235 -807 -232 0
-235 807 0
-235 232 0
236 -772 -803 0
-236 772 0
-236 803 0
237 -236 -709 0
-237 236 0
-237 709 0
238 -808 -235 0
-238 808 0
-238 235 0
239 -26 -7 0
-239 26 0
-239 7 0
240 -239 -794 0
-240 239 0
-240 794 0
241 -809 -238 0
-241 809 0
-241 238 0
242 -761 -743 0
-242 761 0
-242 743 0
243 -242 -759 0
-243 242 0
-243 759 0
244 -810 -241 0
-244 810 0
-244 241 0
245 -759 -794 0
-245 759 0
-245 794 0
246 -245 -11 0
-246 245 0
-246 11 0
247 -811 -244 0
-247 811 0
-247 244 0
248 -50 -26 0
-248 50 0
-248 26 0
249 -248 -48 0
-249 248 0
-249 48 0
250 -812 -247 0
-250 812 0
-250 247 0
251 -774 -711 0
-251 774 0
-251 711 0
252 -251 -729 0
-252 251 0
-252 729 0
253 -813 -250 0
-253 813 0
-253 250 0
254 -49 -798 0
-254 49 0
-254 798 0
255 -254 -777 0
-255 254 0
-255 777 0
256 -814 -253 0
-256 814 0
-256 253 0
257 -804 -720 0
-257 804 0
-257 720 0
258 -257 -815 0
-258 257 0
-258 815 0
259 -816 -256 0
-259 816 0
-259 256 0
260 -45 -761 0
-260 45 0
-260 761 0
261 -260 -804 0
-261 260 0
-261 804 0
262 -817 -259 0
-262 817 0
-262 259 0
263 -731 -16 0
-263 731 0
-263 16 0
264 -263 -818 0
-264 263 0
-264 818 0
265 -819 -262 0
-265 819 0
-265 262 0
266 -41 -718 0
-266 41 0
-266 718 0
267 -266 -9 0
-267 266 0
-267 9 0
268 -820 -265 0
-268 820 0
-268 265 0
269 -48 -702 0
-269 48 0
-269 702 0
270 -269 -32 0
-270 269 0
-270 32 0
271 -821 -268 0
-271 821 0
-271 268 0
272 -765 -708 0
-272 765 0
-272 708 0
273 -272 -17 0
-273 272 0
-273 17 0
274 -822 -271 0
-274 822 0
-274 271 0
275 -788 -2 0
-275 788 0
-275 2 0
276 -275 -705 0
-276 275 0
-276 705 0
277 -823 -274 0
-277 823 0
-277 274 0
278 -765 -1 0
-278 765 0
-278 1 0
279 -278 -47 0
-279 278 0
-279 47 0
280 -824 -277 0
-280 824 0
-280 277 0
281 -34 -729 0
-281 34 0
-281 729 0
282 -281 -739 0
-282 281 0
-282 739 0
283 -825 -280 0
-283 825 0
-283 280 0
284 -149 -31 0
-284 149 0
-284 31 0
285 -826 -283 0
-285 826 0
-285 283 0
286 -40 -818 0
-286 40 0
-286 818 0
287 -286 -17 0
-287 286 0
-287 17 0
288 -827 -285 0
-288 827 0
-288 285 0
289 -6 -2 0
-289 6 0
-289 2 0
290 -289 -716 0
-290 289 0
-290 716 0
291 -828 -288 0
-291 828 0
-291 288 0
292 -774 -1 0
-292 774 0
-292 1 0
293 -292 -746 0
-293 292 0
-293 746 0
294 -829 -291 0
-294 829 0
-294 291 0
295 -50 -715 0
-295 50 0
-295 715 0
296 -295 -757 0
-296 295 0
-296 757 0
297 -830 -294 0
-297 830 0
-297 294 0
298 -756 -29 0
-298 756 0
-298 29 0
299 -298 -11 0
-299 298 0
-299 11 0
300 -831 -297 0
-300 831 0
-300 297 0
301 -50 -763 0
-301 50 0
-301 763 0
302 -301 -8 0
-302 301 0
-302 8 0
303 -832 -300 0
-303 832 0
-303 300 0
304 -743 -789 0
-304 743 0
-304 789 0
305 -304 -815 0
-305 304 0
-305 815 0
306 -833 -303 0
-306 833 0
-306 303 0
307 -44 -12 0
-307 44 0
-307 12 0
308 -307 -770 0
-308 307 0
-308 770 0
309 -834 -306 0
-309 834 0
-309 306 0
310 -725 -709 0
-310 725 0
-310 709 0
311 -310 -815 0
-311 310 0
-311 815 0
312 -835 -309 0
-312 835 0
-312 309 0
313 -714 -9 0
-313 714 0
-313 9 0
314 -313 -11 0
-314 313 0
-314 11 0
315 -836 -312 0
-315 836 0
-315 312 0
316 -48 -32 0
-316 48 0
-316 32 0
317 -316 -38 0
-317 316 0
-317 38 0
318 -837 -315 0
-318 837 0
-318 315 0
319 -761 -750 0
-319 761 0
-319 750 0
320 -319 -729 0
-320 319 0
-320 729 0
321 -838 -318 0
-321 838 0
-321 318 0
322 -794 -711 0
-322 794 0
-322 711 0
323 -322 -8 0
-323 322 0
-323 8 0
324 -839 -321 0
-324 839 0
-324 321 0
325 -803 -768 0
-325 803 0
-325 768 0
326 -325 -40 0
-326 325 0
-326 40 0
327 -840 -324 0
-327 840 0
-327 324 0
328 -798 -20 0
-328 798 0
-328 20 0
329 -328 -815 0
-329 328 0
-329 815 0
330 -841 -327 0
-330 841 0
-330 327 0
331 -761 -34 0
-331 761 0
-331 34 0
332 -331 -8 0
-332 331 0
-332 8 0
333 -842 -330 0
-333 842 0
-333 330 0
334 -48 -37 0
-334 48 0
-334 37 0
335 -334 -711 0
-335 334 0
-335 711 0
336 -843 -333 0
-336 843 0
-336 333 0
337 -750 -3 0
-337 750 0
-337 3 0
338 -337 -11 0
-338 337 0
-338 11 0
339 -844 -336 0
-339 844 0
-339 336 0
340 -761 -15 0
-340 761 0
-340 15 0
341 -340 -26 0
-341 340 0
-341 26 0
342 -845 -339 0
-342 845 0
-342 339 0
343 -777 -8 0
-343 777 0
-343 8 0
344 -343 -720 0
-344 343 0
-344 720 0
345 -846 -342 0
-345 846 0
-345 342 0
346 -9 -700 0
-346 9 0
-346 700 0
347 -346 -32 0
-347 346 0
-347 32 0
348 -847 -345 0
-348 847 0
-348 345 0
349 -26 -757 0
-349 26 0
-349 757 0
350 -349 -39 0
-350 349 0
-350 39 0
351 -848 -348 0
-351 848 0
-351 348 0
352 -750 -37 0
-352 750 0
-352 37 0
353 -352 -23 0
-353 352 0
-353 23 0
354 -849 -351 0
-354 849 0
-354 351 0
355 -20 -4 0
-355 20 0
-355 4 0
356 -355 -739 0
-356 355 0
-356 739 0
357 -850 -354 0
-357 850 0
-357 354 0
358 -774 -756 0
-358 774 0
-358 756 0
359 -358 -49 0
-359 358 0
-359 49 0
360 -851 -357 0
-360 851 0
-360 357 0
361 -5 -3 0
-361 5 0
-361 3 0
362 -361 -39 0
-362 361 0
-362 39 0
363 -852 -360 0
-363 852 0
-363 360 0
364 -47 -25 0
-364 47 0
-364 25 0
365 -364 -737 0
-365 364 0
-365 737 0
366 -853 -363 0
-366 853 0
-366 363 0
367 -7 -1 0
-367 7 0
-367 1 0
368 -367 -757 0
-368 367 0
-368 757 0
369 -854 -366 0
-369 854 0
-369 366 0
370 -227 -29 0
-370 227 0
-370 29 0
371 -855 -369 0
-371 855 0
-371 369 0
372 -48 -34 0
-372 48 0
-372 34 0
373 -372 -745 0
-373 372 0
-373 745 0
374 -856 -371 0
-374 856 0
-374 371 0
375 -36 -4 0
-375 36 0
-375 4 0
376 -375 -17 0
-376 375 0
-376 17 0
377 -857 -374 0
-377 857 0
-377 374 0
378 -47 -34 0
-378 47 0
-378 34 0
379 -378 -24 0
-379 378 0
-379 24 0
380 -858 -377 0
-380 858 0
-380 377 0
381 -45 -1 0
-381 45 0
-381 1 0
382 -381 -33 0
-382 381 0
-382 33 0
383 -859 -380 0
-383 859 0
-383 380 0
384 -725 -712 0
-384 725 0
-384 712 0
385 -384 -32 0
-385 384 0
-385 32 0
386 -860 -383 0
-386 860 0
-386 383 0
387 -5 -2 0
-387 5 0
-387 2 0
388 -387 -737 0
-388 387 0
-388 737 0
389 -861 -386 0
-389 861 0
-389 386 0
390 -731 -777 0
-390 731 0
-390 777 0
391 -390 -39 0
-391 390 0
-391 39 0
392 -862 -389 0
-392 862 0
-392 389 0
393 -725 -15 0
-393 725 0
-393 15 0
394 -393 -815 0
-394 393 0
-394 815 0
395 -863 -392 0
-395 863 0
-395 392 0
396 -43 -6 0
-396 43 0
-396 6 0
397 -396 -777 0
-397 396 0
-397 777 0
398 -864 -395 0
-398 864 0
-398 395 0
399 -752 -5 0
-399 752 0
-399 5 0
400 -399 -741 0
-400 399 0
-400 741 0
401 -865 -398 0
-401 865 0
-401 398 0
402 -44 -14 0
-402 44 0
-402 14 0
403 -402 -741 0
-403 402 0
-403 741 0
404 -866 -401 0
-404 866 0
-404 401 0
405 -13 -709 0
-405 13 0
-405 709 0
406 -405 -32 0
-406 405 0
-406 32 0
407 -867 -404 0
-407 867 0
-407 404 0
408 -741 -6 0
-408 741 0
-408 6 0
409 -408 -780 0
-409 408 0
-409 780 0
410 -868 -407 0
-410 868 0
-410 407 0
411 -11 -763 0
-411 11 0
-411 763 0
412 -411 -17 0
-412 411 0
-412 17 0
413 -869 -410 0
-413 869 0
-413 410 0
414 -352 -41 0
-414 352 0
-414 41 0
415 -870 -413 0
-415 870 0
-415 413 0
416 -794 -709 0
-416 794 0
-416 709 0
417 -416 -32 0
-417 416 0
-417 32 0
418 -871 -415 0
-418 871 0
-418 415 0
419 -709 -702 0
-419 709 0
-419 702 0
420 -419 -729 0
-420 419 0
-420 729 0
421 -872 -418 0
-421 872 0
-421 418 0
422 -741 -714 0
-422 741 0
-422 714 0
423 -422 -8 0
-423 422 0
-423 8 0
424 -873 -421 0
-424 873 0
-424 421 0
425 -30 -700 0
-425 30 0
-425 700 0
426 -425 -759 0
-426 425 0
-426 759 0
427 -874 -424 0
-427 874 0
-427 424 0
428 -777 -23 0
-428 777 0
-428 23 0
429 -428 -720 0
-429 428 0
-429 720 0
430 -875 -427 0
-430 875 0
-430 427 0
431 -45 -34 0
-431 45 0
-431 34 0
432 -431 -763 0
-432 431 0
-432 763 0
433 -876 -430 0
-433 876 0
-433 430 0
434 -37 -9 0
-434 37 0
-434 9 0
435 -434 -6 0
-435 434 0
-435 6 0
436 -877 -433 0
-436 877 0
-436 433 0
437 -30 -701 0
-437 30 0
-437 701 0
438 -437 -757 0
-438 437 0
-438 757 0
439 -878 -436 0
-439 878 0
-439 436 0
440 -746 -736 0
-440 746 0
-440 736 0
441 -440 -36 0
-441 440 0
-441 36 0
442 -879 -439 0
-442 879 0
-442 439 0
443 -34 -737 0
-443 34 0
-443 737 0
444 -443 -22 0
-444 443 0
-444 22 0
445 -880 -442 0
-445 880 0
-445 442 0
446 -759 -14 0
-446 759 0
-446 14 0
447 -446 -741 0
-447 446 0
-447 741 0
448 -881 -445 0
-448 881 0
-448 445 0
449 -4 -789 0
-449 4 0
-449 789 0
450 -449 -33 0
-450 449 0
-450 33 0
451 -882 -448 0
-451 882 0
-451 448 0
452 -46 -26 0
-452 46 0
-452 26 0
453 -452 -14 0
-453 452 0
-453 14 0
454 -883 -451 0
-454 883 0
-454 451 0
455 -750 -737 0
-455 750 0
-455 737 0
456 -455 -33 0
-456 455 0
-456 33 0
457 -884 -454 0
-457 884 0
-457 454 0
458 -768 -19 0
-458 768 0
-458 19 0
459 -458 -11 0
-459 458 0
-459 11 0
460 -885 -457 0
-460 885 0
-460 457 0
461 -45 -789 0
-461 45 0
-461 789 0
462 -461 -804 0
-462 461 0
-462 804 0
463 -886 -460 0
-463 886 0
-463 460 0
464 -774 -743 0
-464 774 0
-464 743 0
465 -464 -3 0
-465 464 0
-465 3 0
466 -887 -463 0
-466 887 0
-466 463 0
467 -788 -49 0
-467 788 0
-467 49 0
468 -467 -705 0
-468 467 0
-468 705 0
469 -888 -466 0
-469 888 0
-469 466 0
470 -788 -731 0
-470 788 0
-470 731 0
471 -470 -12 0
-471 470 0
-471 12 0
472 -889 -469 0
-472 889 0
-472 469 0
473 -43 -712 0
-473 43 0
-473 712 0
474 -473 -24 0
-474 473 0
-474 24 0
475 -890 -472 0
-475 890 0
-475 472 0
476 -768 -15 0
-476 768 0
-476 15 0
477 -476 -45 0
-477 476 0
-477 45 0
478 -891 -475 0
-478 891 0
-478 475 0
479 -761 -32 0
-479 761 0
-479 32 0
480 -479 -748 0
-480 479 0
-480 748 0
481 -892 -478 0
-481 892 0
-481 478 0
482 -777 -14 0
-482 777 0
-482 14 0
483 -482 -22 0
-483 482 0
-483 22 0
484 -893 -481 0
-484 893 0
-484 481 0
485 -718 -5 0
-485 718 0
-485 5 0
486 -485 -23 0
-486 485 0
-486 23 0
487 -894 -484 0
-487 894 0
-487 484 0
488 -765 -705 0
-488 765 0
-488 705 0
489 -488 -17 0
-489 488 0
-489 17 0
490 -895 -487 0
-490 895 0
-490 487 0
491 -745 -798 0
-491 745 0
-491 798 0
492 -491 -722 0
-492 491 0
-492 722 0
493 -896 -490 0
-493 896 0
-493 490 0
494 -15 -743 0
-494 15 0
-494 743 0
495 -494 -23 0
-495 494 0
-495 23 0
496 -897 -493 0
-496 897 0
-496 493 0
497 -761 -741 0
-497 761 0
-497 741 0
498 -497 -716 0
-498 497 0
-498 716 0
499 -898 -496 0
-499 898 0
-499 496 0
500 -331 -763 0
-500 331 0
-500 763 0
501 -899 -499 0
-501 899 0
-501 499 0
502 -44 -711 0
-502 44 0
-502 711 0
503 -502 -709 0
-503 502 0
-503 709 0
504 -900 -501 0
-504 900 0
-504 501 0
505 -731 -748 0
-505 731 0
-505 748 0
506 -505 -716 0
-506 505 0
-506 716 0
507 -901 -504 0
-507 901 0
-507 504 0
508 -772 -23 0
-508 772 0
-508 23 0
509 -508 -711 0
-509 508 0
-509 711 0
510 -902 -507 0
-510 902 0
-510 507 0
511 -12 -4 0
-511 12 0
-511 4 0
512 -511 -9 0
-512 511 0
-512 9 0
513 -903 -510 0
-513 903 0
-513 510 0
514 -41 -743 0
-514 41 0
-514 743 0
515 -514 -780 0
-515 514 0
-515 780 0
516 -904 -513 0
-516 904 0
-516 513 0
517 -48 -729 0
-517 48 0
-517 729 0
518 -517 -17 0
-518 517 0
-518 17 0
519 -905 -516 0
-519 905 0
-519 516 0
520 -729 -798 0
-520 729 0
-520 798 0
521 -520 -17 0
-521 520 0
-521 17 0
522 -906 -519 0
-522 906 0
-522 519 0
523 -715 -14 0
-523 715 0
-523 14 0
524 -523 -708 0
-524 523 0
-524 708 0
525 -907 -522 0
-525 907 0
-525 522 0
526 -42 -30 0
-526 42 0
-526 30 0
527 -526 -16 0
-527 526 0
-527 16 0
528 -908 -525 0
-528 908 0
-528 525 0
529 -48 -705 0
-529 48 0
-529 705 0
530 -529 -722 0
-530 529 0
-530 722 0
531 -909 -528 0
-531 909 0
-531 528 0
532 -27 -5 0
-532 27 0
-532 5 0
533 -532 -818 0
-533 532 0
-533 818 0
534 -910 -531 0
-534 910 0
-534 531 0
535 -375 -748 0
-535 375 0
-535 748 0
536 -911 -534 0
-536 911 0
-536 534 0
537 -912 -726 0
-537 912 0
-537 726 0
538 -537 -17 0
-538 537 0
-538 17 0
539 -913 -536 0
-539 913 0
-539 536 0
540 -37 -16 0
-540 37 0
-540 16 0
541 -540 -772 0
-541 540 0
-541 772 0
542 -914 -539 0
-542 914 0
-542 539 0
543 -803 -711 0
-543 803 0
-543 711 0
544 -543 -739 0
-544 543 0
-544 739 0
545 -915 -542 0
-545 915 0
-545 542 0
546 -798 -718 0
-546 798 0
-546 718 0
547 -546 -36 0
-547 546 0
-547 36 0
548 -916 -545 0
-548 916 0
-548 545 0
549 -772 -711 0
-549 772 0
-549 711 0
550 -549 -720 0
-550 549 0
-550 720 0
551 -917 -548 0
-551 917 0
-551 548 0
552 -774 -25 0
-552 774 0
-552 25 0
553 -552 -36 0
-553 552 0
-553 36 0
554 -918 -551 0
-554 918 0
-554 551 0
555 -43 -25 0
-555 43 0
-555 25 0
556 -555 -737 0
-556 555 0
-556 737 0
557 -919 -554 0
-557 919 0
-557 554 0
558 -774 -3 0
-558 774 0
-558 3 0
559 -558 -31 0
-559 558 0
-559 31 0
560 -920 -557 0
-560 920 0
-560 557 0
561 -726 -757 0
-561 726 0
-561 757 0
562 -561 -777 0
-562 561 0
-562 777 0
563 -921 -560 0
-563 921 0
-563 560 0
564 -13 -743 0
-564 13 0
-564 743 0
565 -564 -45 0
-565 564 0
-565 45 0
566 -922 -563 0
-566 922 0
-566 563 0
567 -42 -12 0
-567 42 0
-567 12 0
568 -567 -702 0
-568 567 0
-568 702 0
569 -923 -566 0
-569 923 0
-569 566 0
570 -748 -763 0
-570 748 0
-570 763 0
571 -570 -17 0
-571 570 0
-571 17 0
572 -924 -569 0
-572 924 0
-572 569 0
573 -741 -705 0
-573 741 0
-573 705 0
574 -573 -815 0
-574 573 0
-574 815 0
575 -925 -572 0
-575 925 0
-575 572 0
576 -41 -726 0
-576 41 0
-576 726 0
577 -576 -33 0
-577 576 0
-577 33 0
578 -926 -575 0
-578 926 0
-578 575 0
579 -18 -699 0
-579 18 0
-579 699 0
580 -579 -39 0
-580 579 0
-580 39 0
581 -927 -578 0
-581 927 0
-581 578 0
582 -746 -700 0
-582 746 0
-582 700 0
583 -582 -708 0
-583 582 0
-583 708 0
584 -928 -581 0
-584 928 0
-584 581 0
585 -752 -23 0
-585 752 0
-585 23 0
586 -585 -31 0
-586 585 0
-586 31 0
587 -929 -584 0
-587 929 0
-587 584 0
588 -35 -739 0
-588 35 0
-588 739 0
589 -588 -22 0
-589 588 0
-589 22 0
590 -930 -587 0
-590 930 0
-590 587 0
591 -42 -9 0
-591 42 0
-591 9 0
592 -591 -11 0
-592 591 0
-592 11 0
593 -931 -590 0
-593 931 0
-593 590 0
594 -25 -715 0
-594 25 0
-594 715 0
595 -594 -736 0
-595 594 0
-595 736 0
596 -932 -593 0
-596 932 0
-596 593 0
597 -48 -20 0
-597 48 0
-597 20 0
598 -597 -3 0
-598 597 0
-598 3 0
599 -933 -596 0
-599 933 0
-599 596 0
600 -765 -752 0
-600 765 0
-600 752 0
601 -600 -763 0
-601 600 0
-601 763 0
602 -934 -599 0
-602 934 0
-602 599 0
603 -765 -746 0
-603 765 0
-603 746 0
604 -603 -7 0
-604 603 0
-604 7 0
605 -935 -602 0
-605 935 0
-605 602 0
606 -37 -25 0
-606 37 0
-606 25 0
607 -606 -737 0
-607 606 0
-607 737 0
608 -936 -605 0
-608 936 0
-608 605 0
609 -13 -8 0
-609 13 0
-609 8 0
610 -609 -720 0
-610 609 0
-610 720 0
611 -937 -608 0
-611 937 0
-611 608 0
612 -18 -743 0
-612 18 0
-612 743 0
613 -612 -759 0
-613 612 0
-613 759 0
614 -938 -611 0
-614 938 0
-614 611 0
615 -40 -23 0
-615 40 0
-615 23 0
616 -615 -748 0
-616 615 0
-616 748 0
617 -939 -614 0
-617 939 0
-617 614 0
618 -761 -1 0
-618 761 0
-618 1 0
619 -618 -815 0
-619 618 0
-619 815 0
620 -940 -617 0
-620 940 0
-620 617 0
621 -35 -12 0
-621 35 0
-621 12 0
622 -621 -794 0
-622 621 0
-622 794 0
623 -941 -620 0
-623 941 0
-623 620 0
624 -770 -726 0
-624 770 0
-624 726 0
625 -624 -777 0
-625 624 0
-625 777 0
626 -942 -623 0
-626 942 0
-626 623 0
627 -27 -715 0
-627 27 0
-627 715 0
628 -627 -748 0
-628 627 0
-628 748 0
629 -943 -626 0
-629 943 0
-629 626 0
630 -788 -46 0
-630 788 0
-630 46 0
631 -630 -725 0
-631 630 0
-631 725 0
632 -944 -629 0
-632 944 0
-632 629 0
633 -739 -709 0
-633 739 0
-633 709 0
634 -633 -716 0
-634 633 0
-634 716 0
635 -945 -632 0
-635 945 0
-635 632 0
636 -759 -701 0
-636 759 0
-636 701 0
637 -636 -39 0
-637 636 0
-637 39 0
638 -946 -635 0
-638 946 0
-638 635 0
639 -6 -3 0
-639 6 0
-639 3 0
640 -639 -757 0
-640 639 0
-640 757 0
641 -947 -638 0
-641 947 0
-641 638 0
642 -49 -765 0
-642 49 0
-642 765 0
643 -642 -17 0
-643 642 0
-643 17 0
644 -948 -641 0
-644 948 0
-644 641 0
645 -803 -18 0
-645 803 0
-645 18 0
646 -645 -48 0
-646 645 0
-646 48 0
647 -949 -644 0
-647 949 0
-647 644 0
648 -774 -803 0
-648 774 0
-648 803 0
649 -648 -34 0
-649 648 0
-649 34 0
650 -950 -647 0
-650 950 0
-650 647 0
651 -757 -13 0
-651 757 0
-651 13 0
652 -651 -739 0
-652 651 0
-652 739 0
653 -951 -650 0
-653 951 0
-653 650 0
654 -745 -29 0
-654 745 0
-654 29 0
655 -654 -17 0
-655 654 0
-655 17 0
656 -952 -653 0
-656 952 0
-656 653 0
657 -27 -726 0
-657 27 0
-657 726 0
658 -657 -745 0
-658 657 0
-658 745 0
659 -953 -656 0
-659 953 0
-659 656 0
660 -42 -37 0
-660 42 0
-660 37 0
661 -660 -699 0
-661 660 0
-661 699 0
662 -954 -659 0
-662 954 0
-662 659 0
663 -720 -2 0
-663 720 0
-663 2 0
664 -663 -39 0
-664 663 0
-664 39 0
665 -955 -662 0
-665 955 0
-665 662 0
666 -23 -4 0
-666 23 0
-666 4 0
667 -666 -815 0
-667 666 0
-667 815 0
668 -956 -665 0
-668 956 0
-668 665 0
669 -40 -28 0
-669 40 0
-669 28 0
670 -669 -21 0
-670 669 0
-670 21 0
671 -957 -668 0
-671 957 0
-671 668 0
672 -750 -4 0
-672 750 0
-672 4 0
673 -672 -774 0
-673 672 0
-673 774 0
674 -958 -671 0
-674 958 0
-674 671 0
675 -12 -763 0
-675 12 0
-675 763 0
676 -675 -49 0
-676 675 0
-676 49 0
677 -959 -674 0
-677 959 0
-677 674 0
678 -725 -16 0
-678 725 0
-678 16 0
679 -678 -746 0
-679 678 0
-679 746 0
680 -960 -677 0
-680 960 0
-680 677 0
681 -725 -798 0
-681 725 0
-681 798 0
682 -681 -741 0
-682 681 0
-682 741 0
683 -961 -680 0
-683 961 0
-683 680 0
684 -761 -31 0
-684 761 0
-684 31 0
685 -684 -815 0
-685 684 0
-685 815 0
686 -962 -683 0
-686 962 0
-686 683 0
687 -912 -13 0
-687 912 0
-687 13 0
688 -687 -22 0
-688 687 0
-688 22 0
689 -963 -686 0
-689 963 0
-689 686 0
690 -737 -709 0
-690 737 0
-690 709 0
691 -690 -736 0
-691 690 0
-691 736 0
692 -964 -689 0
-692 964 0
-692 689 0
693 -804 -45 0
-693 804 0
-693 45 0
694 -693 -22 0
-694 693 0
-694 22 0
695 -965 -692 0
-695 965 0
-695 692 0
696 -718 -1 0
-696 718 0
-696 1 0
697 -696 -44 0
-697 696 0
-697 44 0
698 -966 -695 0
-698 966 0
-698 695 0
-699 -2 0
699 2 0
-700 -3 0
700 3 0
-701 -4 0
701 4 0
-702 -6 0
702 6 0
-703 -54 0
703 54 0
-704 -52 0
704 52 0
-705 -8 0
705 8 0
-706 -57 0
706 57 0
-707 -60 0
707 60 0
-708 -11 0
708 11 0
-709 -9 0
709 9 0
-710 -63 0
710 63 0
-711 -12 0
711 12 0
-712 -14 0
712 14 0
-713 -66 0
713 66 0
-714 -16 0
714 16 0
-715 -15 0
715 15 0
-716 -17 0
716 17 0
-717 -69 0
717 69 0
-718 -18 0
718 18 0
-719 -72 0
719 72 0
-720 -21 0
720 21 0
-721 -75 0
721 75 0
-722 -10 0
722 10 0
-723 -78 0
723 78 0
-724 -81 0
724 81 0
-725 -26 0
725 26 0
-726 -25 0
726 25 0
-727 -84 0
727 84 0
-728 -87 0
728 87 0
-729 -29 0
729 29 0
-730 -90 0
730 90 0
-731 -30 0
731 30 0
-732 -93 0
732 93 0
-733 -96 0
733 96 0
-734 -99 0
734 99 0
-735 -102 0
735 102 0
-736 -35 0
736 35 0
-737 -13 0
737 13 0
-738 -105 0
738 105 0
-739 -32 0
739 32 0
-740 -108 0
740 108 0
-741 -24 0
741 24 0
-742 -111 0
742 111 0
-743 -5 0
743 5 0
-744 -114 0
744 114 0
-745 -41 0
745 41 0
-746 -40 0
746 40 0
-747 -117 0
747 117 0
-748 -22 0
748 22 0
-749 -120 0
749 120 0
-750 -42 0
750 42 0
-751 -123 0
751 123 0
-752 -34 0
752 34 0
-753 -126 0
753 126 0
-754 -129 0
754 129 0
-755 -132 0
755 132 0
-756 -37 0
756 37 0
-757 -19 0
757 19 0
-758 -135 0
758 135 0
-759 -45 0
759 45 0
-760 -138 0
760 138 0
-761 -44 0
761 44 0
-762 -141 0
762 141 0
-763 -7 0
763 7 0
-764 -144 0
764 144 0
-765 -46 0
765 46 0
-766 -147 0
766 147 0
-767 -150 0
767 150 0
-768 -20 0
768 20 0
-769 -153 0
769 153 0
-770 -47 0
770 47 0
-771 -156 0
771 156 0
-772 -48 0
772 48 0
-773 -159 0
773 159 0
-774 -43 0
774 43 0
-775 -162 0
775 162 0
-776 -165 0
776 165 0
-777 -28 0
777 28 0
-778 -168 0
778 168 0
-779 -171 0
779 171 0
-780 -33 0
780 33 0
-781 -174 0
781 174 0
-782 -177 0
782 177 0
-783 -180 0
783 180 0
-784 -183 0
784 183 0
-785 -186 0
785 186 0
-786 -189 0
786 189 0
-787 -192 0
787 192 0
-788 -50 0
788 50 0
-789 -1 0
789 1 0
-790 -195 0
790 195 0
-791 -198 0
791 198 0
-792 -201 0
792 201 0
-793 -204 0
793 204 0
-794 -31 0
794 31 0
-795 -207 0
795 207 0
-796 -210 0
796 210 0
-797 -213 0
797 213 0
-798 -23 0
798 23 0
-799 -216 0
799 216 0
-800 -219 0
800 219 0
-801 -222 0
801 222 0
-802 -225 0
802 225 0
-803 -27 0
803 27 0
-804 -49 0
804 49 0
-805 -228 0
805 228 0
-806 -231 0
806 231 0
-807 -234 0
807 234 0
-808 -237 0
808 237 0
-809 -240 0
809 240 0
-810 -243 0
810 243 0
-811 -246 0
811 246 0
-812 -249 0
812 249 0
-813 -252 0
813 252 0
-814 -255 0
814 255 0
-815 -39 0
815 39 0
-816 -258 0
816 258 0
-817 -261 0
817 261 0
-818 -38 0
818 38 0
-819 -264 0
819 264 0
-820 -267 0
820 267 0
-821 -270 0
821 270 0
-822 -273 0
822 273 0
-823 -276 0
823 276 0
-824 -279 0
824 279 0
-825 -282 0
825 282 0
-826 -284 0
826 284 0
-827 -287 0
827 287 0
-828 -290 0
828 290 0
-829 -293 0
829 293 0
-830 -296 0
830 296 0
-831 -299 0
831 299 0
-832 -302 0
832 302 0
-833 -305 0
833 305 0
-834 -308 0
834 308 0
-835 -311 0
835 311 0
-836 -314 0
836 314 0
-837 -317 0
837 317 0
-838 -320 0
838 320 0
-839 -323 0
839 323 0
-840 -326 0
840 326 0
-841 -329 0
841 329 0
-842 -332 0
842 332 0
-843 -335 0
843 335 0
-844 -338 0
844 338 0
-845 -341 0
845 341 0
-846 -344 0
846 344 0
-847 -347 0
847 347 0
-848 -350 0
848 350 0
-849 -353 0
849 353 0
-850 -356 0
850 356 0
-851 -359 0
851 359 0
-852 -362 0
852 362 0
-853 -365 0
853 365 0
-854 -368 0
854 368 0
-855 -370 0
855 370 0
-856 -373 0
856 373 0
-857 -376 0
857 376 0
-858 -379 0
858 379 0
-859 -382 0
859 382 0
-860 -385 0
860 385 0
-861 -388 0
861 388 0
-862 -391 0
862 391 0
-863 -394 0
863 394 0
-864 -397 0
864 397 0
-865 -400 0
865 400 0
-866 -403 0
866 403 0
-867 -406 0
867 406 0
-868 -409 0
868 409 0
-869 -412 0
869 412 0
-870 -414 0
870 414 0
-871 -417 0
871 417 0
-872 -420 0
872 420 0
-873 -423 0
873 423 0
-874 -426 0
874 426 0
-875 -429 0
875 429 0
-876 -432 0
876 432 0
-877 -435 0
877 435 0
-878 -438 0
878 438 0
-879 -441 0
879 441 0
-880 -444 0
880 444 0
-881 -447 0
881 447 0
-882 -450 0
882 450 0
-883 -453 0
883 453 0
-884 -456 0
884 456 0
-885 -459 0
885 459 0
-886 -462 0
886 462 0
-887 -465 0
887 465 0
-888 -468 0
888 468 0
-889 -471 0
889 471 0
-890 -474 0
890 474 0
-891 -477 0
891 477 0
-892 -480 0
892 480 0
-893 -483 0
893 483 0
-894 -486 0
894 486 0
-895 -489 0
895 489 0
-896 -492 0
896 492 0
-897 -495 0
897 495 0
-898 -498 0
898 498 0
-899 -500 0
899 500 0
-900 -503 0
900 503 0
-901 -506 0
901 506 0
-902 -509 0
902 509 0
-903 -512 0
903 512 0
-904 -515 0
904 515 0
-905 -518 0
905 518 0
-906 -521 0
906 521 0
-907 -524 0
907 524 0
-908 -527 0
908 527 0
-909 -530 0
909 530 0
-910 -533 0
910 533 0
-911 -535 0
911 535 0
-912 -36 0
912 36 0
-913 -538 0
913 538 0
-914 -541 0
914 541 0
-915 -544 0
915 544 0
-916 -547 0
916 547 0
-917 -550 0
917 550 0
-918 -553 0
918 553 0
-919 -556 0
919 556 0
-920 -559 0
920 559 0
-921 -562 0
921 562 0
-922 -565 0
922 565 0
-923 -568 0
923 568 0
-924 -571 0
924 571 0
-925 -574 0
925 574 0
-926 -577 0
926 577 0
-927 -580 0
927 580 0
-928 -583 0
928 583 0
-929 -586 0
929 586 0
-930 -589 0
930 589 0
-931 -592 0
931 592 0
-932 -595 0
932 595 0
-933 -598 0
933 598 0
-934 -601 0
934 601 0
-935 -604 0
935 604 0
-936 -607 0
936 607 0
-937 -610 0
937 610 0
-938 -613 0
938 613 0
-939 -616 0
939 616 0
-940 -619 0
940 619 0
-941 -622 0
941 622 0
-942 -625 0
942 625 0
-943 -628 0
943 628 0
-944 -631 0
944 631 0
-945 -634 0
945 634 0
-946 -637 0
946 637 0
-947 -640 0
947 640 0
-948 -643 0
948 643 0
-949 -646 0
949 646 0
-950 -649 0
950 649 0
-951 -652 0
951 652 0
-952 -655 0
952 655 0
-953 -658 0
953 658 0
-954 -661 0
954 661 0
-955 -664 0
955 664 0
-956 -667 0
956 667 0
-957 -670 0
957 670 0
-958 -673 0
958 673 0
-959 -676 0
959 676 0
-960 -679 0
960 679 0
-961 -682 0
961 682 0
-962 -685 0
962 685 0
-963 -688 0
963 688 0
-964 -691 0
964 691 0
-965 -694 0
965 694 0
-966 -697 0
966 697 0
698 0
